
  26    0


   0  12 2 3 4 5 6 7 8 9 10 23 24 25 
   4   9 22 21 19 16 15 14 13 12 11 
   3   7 19 18 17 15 14 12 11 
  10   3 20 15 14 
   7   2 13 11 
  10   2 13 11 
   1   1 18 
   6   1 17 
   8   1 12 
   8   1 16 
   6   1 26
   8   1 26
   1   1 26
   1   1 26
   2   1 26
   9   1 26
   2   1 26
   8   1 26
   3   1 26
   5   1 26
   9   1 26
   2   1 26
   6   1 26
   2   1 26
   4   1 26
   0   0 
